NAME: ACTUAL_TOURS/amz0644
TYPE: TOUR
COMMENT: RouteID_4333c352-f538-4a4f-8a6e-a09f8281e343
DIMENSION: 153
TOUR_SECTION
107
145
57
103
96
117
32
5
49
134
73
52
86
116
79
131
27
22
46
21
10
89
2
143
130
3
41
28
106
20
95
48
69
18
152
147
91
33
67
39
146
83
93
74
90
115
26
66
50
53
124
118
70
11
60
144
87
108
153
16
72
98
81
14
77
30
135
142
100
34
149
45
44
125
78
19
17
29
75
37
56
119
80
94
151
35
137
59
140
55
42
1
148
51
65
92
9
102
132
104
4
6
128
82
88
126
101
114
121
71
62
54
76
112
105
64
123
36
43
109
129
133
110
111
84
68
23
141
63
138
15
139
127
40
122
38
58
25
85
7
47
12
31
136
97
120
99
150
61
8
24
13
113
-1
EOF
